132740
66,59,44,10,27,28,87,1,58,76,24,43,79,91,96,78,3,94,70,18,7,84,53,32,63,35,75,15,4,103,61,47,14,102,74,83,34,26,9,57,80,89,93,12,23,92,8,97,55,29,30,5,52,65,31,13,20,16,64,90,56,40,6,69,88,98,106,42,81,86,46,77,17,21,22,62,25,45,19,50,68,99,100,51,72,82,33,2,73,48,85,11,41,67,104,95,54,71,36,39,49,37,101,38,105,60